60
2 0 2
3 0 2
4 0 3
4 1 2
4 3 4
5 1 1
5 2 1
5 4 1
6 0 5
7 2 5
7 3 5
7 5 1
7 6 2
8 0 3
8 1 3
8 2 4
8 4 5
8 7 3
9 0 2
9 1 3
9 3 4
9 7 4
9 8 2
10 0 3
10 1 2
10 2 5
10 3 4
10 4 1
10 5 3
10 6 4
10 7 5
10 8 5
10 9 5
11 0 4
11 1 4
11 3 3
11 4 5
11 6 2
11 8 3
11 9 5
12 0 5
12 3 1
12 4 3
12 8 2
12 9 3
12 11 3
13 1 3
13 2 4
13 8 1
13 11 1
13 12 1
14 0 3
14 1 1
14 5 4
14 7 3
14 8 4
14 10 5
14 11 3
15 2 2
15 4 1
15 6 1
15 7 3
15 8 4
15 11 2
15 12 2
15 14 1
16 0 3
16 1 1
16 3 1
16 5 3
16 6 3
16 7 1
16 9 5
16 10 3
16 12 5
16 13 5
16 14 1
16 15 5
17 1 2
17 6 2
17 7 4
17 12 3
17 15 1
18 0 4
18 1 1
18 3 2
18 4 2
18 5 2
18 11 3
18 13 3
18 14 4
18 16 4
19 0 5
19 1 4
19 7 3
19 8 1
19 9 4
19 10 4
19 13 1
19 14 5
19 15 4
19 18 2
20 1 2
20 2 4
20 4 4
20 5 5
20 6 3
20 7 4
20 9 2
20 11 5
20 13 3
20 14 4
20 18 2
20 19 1
21 0 2
21 1 2
21 4 1
21 6 5
21 9 4
21 12 1
21 15 2
21 17 2
21 18 4
21 19 1
21 20 2
22 0 3
22 1 2
22 9 2
22 10 1
22 11 4
22 12 1
22 16 4
22 18 4
22 19 1
23 0 2
23 2 3
23 3 2
23 4 4
23 5 4
23 9 4
23 11 5
23 14 1
23 16 2
23 17 1
23 18 2
23 20 3
24 0 5
24 2 2
24 4 3
24 6 5
24 9 5
24 14 2
24 16 5
24 17 5
24 18 3
24 19 5
24 22 5
25 0 4
25 1 2
25 3 3
25 5 5
25 7 4
25 9 1
25 10 4
25 11 2
25 13 3
25 16 2
25 18 5
26 3 3
26 4 1
26 8 1
26 15 1
26 17 1
26 18 1
26 19 5
26 21 3
26 24 5
26 25 4
27 0 1
27 1 5
27 6 5
27 8 1
27 12 3
27 13 5
27 14 3
27 15 2
27 17 5
27 18 3
27 19 5
27 22 5
27 23 1
27 26 2
28 0 4
28 2 4
28 3 1
28 4 4
28 7 5
28 9 1
28 10 3
28 11 2
28 12 3
28 13 5
28 14 5
28 16 3
28 17 2
28 18 5
28 19 3
28 22 3
28 25 5
29 1 4
29 2 1
29 7 1
29 8 1
29 11 3
29 12 2
29 16 4
29 17 2
29 20 2
29 21 1
29 22 2
29 27 1
29 28 5
30 0 1
30 1 2
30 4 1
30 5 3
30 6 4
30 8 2
30 12 1
30 13 2
30 14 2
30 15 2
30 16 3
30 17 4
30 19 1
30 20 4
30 21 5
30 24 3
30 25 3
30 26 3
30 27 1
31 4 1
31 5 3
31 7 5
31 8 1
31 16 3
31 17 1
31 20 1
31 24 5
32 0 3
32 2 3
32 3 5
32 4 1
32 5 1
32 10 1
32 12 4
32 14 5
32 15 5
32 16 3
32 19 4
32 21 3
32 22 5
32 25 2
32 26 3
32 27 1
32 28 5
32 30 2
32 31 1
33 1 5
33 3 4
33 5 3
33 7 1
33 9 4
33 14 5
33 19 2
33 21 4
33 22 1
33 23 5
33 24 4
33 27 3
33 31 5
34 0 5
34 3 4
34 4 4
34 5 1
34 6 5
34 8 2
34 11 3
34 13 4
34 14 3
34 15 1
34 19 5
34 21 3
34 23 4
34 25 4
34 32 1
34 33 1
35 0 1
35 4 1
35 5 5
35 8 2
35 10 5
35 11 5
35 13 4
35 14 2
35 16 2
35 17 1
35 19 1
35 20 4
35 21 2
35 22 3
35 23 4
35 24 1
35 27 4
35 28 2
35 30 2
35 32 3
35 33 1
36 1 1
36 3 4
36 5 5
36 6 5
36 7 1
36 8 3
36 9 3
36 10 5
36 12 1
36 13 1
36 14 1
36 15 1
36 17 4
36 22 2
36 27 1
36 29 4
36 32 3
36 33 1
36 35 2
37 2 1
37 5 1
37 9 5
37 11 5
37 12 5
37 15 1
37 16 5
37 18 4
37 19 3
37 24 4
37 26 1
37 28 5
37 30 2
37 31 2
37 32 5
37 33 5
37 34 5
38 1 3
38 2 3
38 3 1
38 5 4
38 6 5
38 7 4
38 11 1
38 12 3
38 13 3
38 14 1
38 15 4
38 19 1
38 21 2
38 23 4
38 24 5
38 25 4
38 26 1
38 27 4
38 28 2
38 31 2
38 33 5
38 36 4
38 37 3
39 1 5
39 2 3
39 3 3
39 7 2
39 9 2
39 12 3
39 16 2
39 17 2
39 18 3
39 19 2
39 20 3
39 21 2
39 24 1
39 30 1
39 32 3
39 36 4
39 38 5
40 0 1
40 3 5
40 4 2
40 7 1
40 8 1
40 10 2
40 14 5
40 15 4
40 17 2
40 18 2
40 21 3
40 23 2
40 24 5
40 31 2
40 32 5
40 34 5
40 36 4
40 38 2
41 0 4
41 5 3
41 6 2
41 9 2
41 13 5
41 15 4
41 18 4
41 21 1
41 24 5
41 25 1
41 27 3
41 28 2
41 29 1
41 30 4
41 32 5
41 35 4
41 39 5
42 1 4
42 3 2
42 4 4
42 5 3
42 7 5
42 9 1
42 10 3
42 12 4
42 13 3
42 14 4
42 16 2
42 18 4
42 20 5
42 22 3
42 31 5
42 33 3
42 34 1
42 40 2
43 0 5
43 5 5
43 6 5
43 7 4
43 9 1
43 10 3
43 13 4
43 14 4
43 15 4
43 16 5
43 18 3
43 21 2
43 23 3
43 25 5
43 26 5
43 27 5
43 28 1
43 29 1
43 30 2
43 31 3
43 35 5
43 38 5
43 39 3
43 40 1
43 42 2
44 1 1
44 3 2
44 4 2
44 6 5
44 7 4
44 9 5
44 11 5
44 13 1
44 14 3
44 18 5
44 20 2
44 21 5
44 22 2
44 23 1
44 24 3
44 26 4
44 28 1
44 29 2
44 30 4
44 31 5
44 33 3
44 34 4
44 36 2
44 37 2
44 40 4
44 41 4
44 42 2
45 0 4
45 1 1
45 2 4
45 3 4
45 5 5
45 6 3
45 7 4
45 9 5
45 11 2
45 14 2
45 15 5
45 19 4
45 21 1
45 25 1
45 26 4
45 29 3
45 34 1
45 35 2
45 38 3
45 40 4
45 41 3
45 43 1
46 2 4
46 3 1
46 4 1
46 6 3
46 7 3
46 8 3
46 12 2
46 13 4
46 14 1
46 17 5
46 18 3
46 19 3
46 20 2
46 24 1
46 27 5
46 28 2
46 29 3
46 31 1
46 34 3
46 35 5
46 36 2
46 39 3
46 41 5
46 45 3
47 3 4
47 5 5
47 6 4
47 8 3
47 10 5
47 13 3
47 17 2
47 18 5
47 19 4
47 21 4
47 22 1
47 23 2
47 24 5
47 25 4
47 26 3
47 29 4
47 30 1
47 32 5
47 34 4
47 35 1
47 38 4
47 42 5
47 46 3
48 0 4
48 1 3
48 3 3
48 4 5
48 6 1
48 7 3
48 8 1
48 11 5
48 16 2
48 17 2
48 18 1
48 19 1
48 20 3
48 22 2
48 24 3
48 25 4
48 26 5
48 27 5
48 31 5
48 33 5
48 35 4
48 36 3
48 37 2
48 38 5
48 40 1
48 41 5
48 44 1
48 45 5
49 0 1
49 5 5
49 6 1
49 8 2
49 9 2
49 13 3
49 14 4
49 17 5
49 19 2
49 20 2
49 27 3
49 29 3
49 33 3
49 35 2
49 37 1
49 38 1
49 41 1
49 47 4
50 1 2
50 4 3
50 5 3
50 7 3
50 11 4
50 14 2
50 20 5
50 21 1
50 22 5
50 23 2
50 27 5
50 28 4
50 30 1
50 31 1
50 33 4
50 35 5
50 36 4
50 37 3
50 40 2
50 41 3
50 45 4
50 48 1
50 49 5
51 1 4
51 3 5
51 4 3
51 5 2
51 6 5
51 9 5
51 12 4
51 13 3
51 15 3
51 16 1
51 17 1
51 19 5
51 21 3
51 23 1
51 25 3
51 26 2
51 29 2
51 31 4
51 32 3
51 39 5
51 46 2
51 47 3
51 48 1
52 5 2
52 6 4
52 9 1
52 10 2
52 16 2
52 17 2
52 22 2
52 23 3
52 24 4
52 25 5
52 26 4
52 28 1
52 30 1
52 33 4
52 41 4
52 42 4
52 44 5
52 45 5
52 46 4
52 48 2
52 49 5
52 50 4
52 51 3
53 0 2
53 1 1
53 3 3
53 6 5
53 7 3
53 8 1
53 11 4
53 15 4
53 16 1
53 18 2
53 21 4
53 22 5
53 23 4
53 25 3
53 33 1
53 36 4
53 39 4
53 40 5
53 41 3
53 42 3
53 43 3
53 44 1
53 45 3
53 47 5
53 48 2
53 51 2
53 52 2
54 0 3
54 1 4
54 11 2
54 13 5
54 15 2
54 18 2
54 20 4
54 21 1
54 23 3
54 25 3
54 26 1
54 30 2
54 32 1
54 33 4
54 35 4
54 38 4
54 39 4
54 40 3
54 41 5
54 42 5
54 43 3
54 47 5
54 48 1
54 49 4
54 50 2
54 51 5
55 0 5
55 1 3
55 4 5
55 5 4
55 8 2
55 12 5
55 13 2
55 15 4
55 16 2
55 17 3
55 18 1
55 19 2
55 22 1
55 24 5
55 25 2
55 29 5
55 31 5
55 33 3
55 34 4
55 36 4
55 39 3
55 41 3
55 45 5
55 48 1
55 54 3
56 1 5
56 2 5
56 4 1
56 5 2
56 6 3
56 14 2
56 15 2
56 16 4
56 17 5
56 18 2
56 19 1
56 20 1
56 22 4
56 23 4
56 24 5
56 25 5
56 26 3
56 28 3
56 31 3
56 32 4
56 33 4
56 35 2
56 37 3
56 38 5
56 39 1
56 42 1
56 45 2
56 46 2
56 48 1
56 49 3
56 51 1
56 52 1
56 53 4
57 0 4
57 1 1
57 3 3
57 4 2
57 5 2
57 8 4
57 10 1
57 11 3
57 12 2
57 13 2
57 14 3
57 16 2
57 18 1
57 20 4
57 22 3
57 24 4
57 25 5
57 26 4
57 27 2
57 28 1
57 30 4
57 32 4
57 33 1
57 36 4
57 37 3
57 39 5
57 40 1
57 43 2
57 44 2
57 45 3
57 48 4
57 50 3
58 2 4
58 4 3
58 5 3
58 7 1
58 9 3
58 10 4
58 15 4
58 16 1
58 17 1
58 18 4
58 19 5
58 20 1
58 22 1
58 23 3
58 25 2
58 26 3
58 28 3
58 30 3
58 31 3
58 34 1
58 35 5
58 37 4
58 38 2
58 39 2
58 42 3
58 45 4
58 49 4
58 54 1
58 56 3
58 57 5
59 0 5
59 6 2
59 7 3
59 10 1
59 11 4
59 12 4
59 13 3
59 14 1
59 15 4
59 18 5
59 20 5
59 21 4
59 23 2
59 26 5
59 28 2
59 31 4
59 34 2
59 35 2
59 37 1
59 38 4
59 41 2
59 42 4
59 43 5
59 46 4
59 47 1
59 49 4
59 50 4
59 52 2
59 54 3
59 55 4
59 57 5
